networks/rf_174_1498/rf_174_1498-lower.txt
Number of groups: 52
Flow 1: {2 5 0} {5 92 0} 
Flow 2: {2 20 0} {20 4 0} {4 33 0} {33 120 0} 
Flow 3: {2 7 0} {7 79 0} {79 6 0} {6 47 0} {47 134 0} 
Flow 4: {4 40 0} {40 36 0} {36 53 0} {53 140 0} 
Flow 5: {53 54 0} {54 141 0} 
Flow 6: {2 11 0} {11 13 0} {13 12 0} {12 14 0} {14 56 0} {56 143 0} 
Flow 7: {54 57 0} {57 69 0} {69 156 0} 
Flow 8: {20 9 0} {9 75 0} {75 162 0} 
Flow 9: {79 166 0} 
Flow 10: {47 41 0} {41 29 0} {29 80 0} {80 83 0} {83 170 0} 
Flow 11: {40 28 0} {28 23 0} {23 85 0} {85 172 0} 
Flow 12: {85 86 0} {86 173 0} 
Flow 13: {3 1 0} {1 2 0} {2 89 0} 
Flow 14: {1 5 0} Flow 15: {1 8 0} {8 95 0} 
Flow 16: {1 9 0} {9 96 0} 
Flow 17: {1 11 0} {11 98 0} 
Flow 18: {1 4 0} {40 13 0} {13 15 0} {15 102 0} 
Flow 19: {4 43 0} {43 41 0} {29 22 0} {22 109 0} 
Flow 20: {23 110 0} 
Flow 21: {28 115 0} 
Flow 23: {33 34 0} {34 121 0} 
Flow 24: {36 123 0} 
Flow 25: {43 38 0} {38 125 0} 
Flow 26: {28 39 0} {39 126 0} 
Flow 27: {41 128 0} 
Flow 28: {9 58 0} {58 44 0} {44 131 0} 
Flow 29: {58 46 0} {46 133 0} 
Flow 30: {9 47 0} Flow 31: {13 50 0} {50 137 0} 
Flow 35: {4 81 0} {81 66 0} {66 65 0} {65 152 0} 
Flow 36: {66 153 0} 
Flow 38: {9 72 0} {72 159 0} 
Flow 40: {44 76 0} {76 163 0} 
Flow 41: {1 7 0} Flow 42: {80 167 0} 
Flow 46: {4 20 0} {20 10 0} {10 5 0} Flow 54: {47 6 0} {6 79 0} Flow 58: {5 2 0} Flow 59: {7 8 0} Flow 63: {5 35 0} {35 6 0} Flow 67: {41 38 0} Flow 70: {41 44 0} Flow 86: {7 2 0} Flow 87: {7 1 0} {1 3 0} {3 90 0} 
Flow 90: {47 9 0} Flow 93: {3 18 0} {18 105 0} 
Flow 110: {66 64 0} {64 151 0} 
Flow 114: {46 71 0} {71 158 0} 
Flow 121: {46 78 0} {78 84 0} {84 171 0} 
Flow 124: {8 7 0} Flow 125: {8 1 0} Flow 127: {7 94 0} 
Flow 128: {8 19 0} {19 9 0} Flow 130: {8 20 0} {12 99 0} 
Flow 136: {80 30 0} {30 117 0} 
Flow 137: {33 32 0} {32 119 0} 
Flow 148: {59 52 0} {52 51 0} {51 138 0} 
Flow 148: {58 59 0} Flow 149: {52 139 0} 
Flow 153: {14 61 0} {61 148 0} 
Flow 154: {13 16 0} {16 63 0} {63 150 0} 
Flow 169: {9 31 0} {31 33 0} Flow 171: {9 19 0} {19 4 0} Flow 176: {10 1 0} Flow 179: {10 35 0} {35 7 0} Flow 181: {10 20 0} Flow 186: {20 107 0} 
Flow 199: {9 67 0} {67 45 0} {45 132 0} 
Flow 208: {59 146 0} 
Flow 209: {61 60 0} {60 147 0} 
Flow 220: {78 165 0} 
Flow 223: {66 82 0} {82 169 0} 
Flow 228: {11 2 0} Flow 230: {11 35 0} Flow 235: {11 1 0} Flow 240: {12 13 0} {13 11 0} Flow 241: {13 40 0} {40 4 0} {20 8 0} Flow 244: {12 15 0} Flow 256: {56 54 0} Flow 268: {14 12 0} Flow 292: {15 13 0} Flow 293: {20 3 0} Flow 299: {15 12 0} Flow 300: {9 18 0} Flow 314: {41 45 0} Flow 326: {12 16 0} Flow 343: {16 13 0} Flow 348: {16 12 0} Flow 379: {20 2 0} Flow 414: {22 29 0} {29 41 0} {41 47 0} {79 7 0} Flow 415: {6 35 0} {35 5 0} Flow 416: {41 43 0} {43 4 0} Flow 418: {35 11 0} Flow 419: {43 36 0} {36 40 0} Flow 420: {22 21 0} {21 23 0} Flow 421: {22 28 0} Flow 424: {28 38 0} Flow 432: {54 56 0} Flow 435: {80 73 0} {73 70 0} {70 57 0} Flow 436: {41 46 0} {46 72 0} Flow 444: {23 24 0} {24 40 0} Flow 450: {23 21 0} {21 22 0} Flow 451: {23 28 0} Flow 454: {24 36 0} Flow 457: {36 43 0} Flow 475: {44 78 0} Flow 486: {24 21 0} Flow 487: {24 23 0} Flow 488: {24 28 0} Flow 516: {27 55 0} {55 53 0} {53 36 0} Flow 527: {27 22 0} Flow 530: {27 30 0} Flow 543: {44 67 0} {67 59 0} Flow 549: {56 60 0} Flow 550: {60 61 0} Flow 562: {30 80 0} Flow 564: {30 83 0} Flow 568: {28 40 0} Flow 577: {28 22 0} Flow 581: {28 36 0} Flow 607: {31 9 0} {9 20 0} Flow 608: {19 3 0} Flow 611: {19 8 0} Flow 613: {9 1 0} Flow 614: {33 4 0} Flow 621: {31 32 0} Flow 623: {31 34 0} Flow 641: {32 48 0} {48 82 0} {82 66 0} Flow 655: {32 33 0} Flow 659: {32 31 0} Flow 670: {34 33 0} Flow 675: {34 31 0} Flow 704: {34 48 0} Flow 729: {36 28 0} Flow 731: {38 41 0} Flow 732: {38 43 0} Flow 741: {38 28 0} Flow 743: {42 43 0} Flow 746: {42 41 0} Flow 753: {42 38 0} Flow 796: {67 9 0} Flow 798: {44 41 0} Flow 808: {46 58 0} {58 9 0} Flow 809: {46 41 0} Flow 810: {48 34 0} Flow 818: {51 52 0} {52 59 0} {59 58 0} Flow 861: {54 53 0} Flow 884: {57 70 0} {70 73 0} {73 80 0} Flow 885: {70 74 0} {74 83 0} Flow 888: {56 14 0} Flow 906: {57 54 0} Flow 930: {61 14 0} Flow 944: {60 56 0} {73 30 0} Flow 964: {60 16 0} Flow 981: {63 16 0} Flow 1022: {64 66 0} {66 81 0} {81 4 0} Flow 1027: {65 66 0} Flow 1030: {82 48 0} Flow 1045: {68 57 0} Flow 1056: {80 29 0} Flow 1097: {69 57 0} Flow 1184: {83 80 0} Flow 1189: {74 70 0} Flow 1199: {75 9 0} Flow 1208: {76 45 0} {45 67 0} Flow 1212: {45 41 0} Flow 1220: {76 44 0} Flow 1235: {77 44 0} Flow 1253: {77 46 0} Flow 1273: {78 46 0} Flow 1374: {84 78 0} Flow 1389: {78 44 0} Flow 1408: {85 23 0} Flow 1421: {22 30 0} Flow 1454: {86 85 0} Time taken running everything: 0 seconds
