networks/rf_174_1498/rf_174_1498-lower.sol
<?xml version = "1.0" encoding="UTF-8" standalone="yes"?>
<CPLEXSolution version="1.2">
 <header
   problemName="networks/rf_174_1498/rf_174_1498-lower.lp"
   solutionName="incumbent"
   solutionIndex="-1"
   objectiveValue="52"
   solutionTypeValue="3"
   solutionTypeString="primal"
   solutionStatusValue="101"
   solutionStatusString="integer optimal solution"
   solutionMethodString="mip"
   primalFeasible="1"
   dualFeasible="1"
   MIPNodes="0"
   MIPIterations="0"
   writeLevel="3"/>
 <quality
   epInt="1.0000000000000001e-05"
   epRHS="9.9999999999999995e-07"
   maxIntInfeas="0"
   maxPrimalInfeas="0"
   maxX="1"
   maxSlack="1"/>
 <variables>
  <variable name="Y(1,5)" index="4" value="1"/>
  <variable name="Y(2,33)" index="161" value="1"/>
  <variable name="Y(3,47)" index="306" value="1"/>
  <variable name="Y(4,53)" index="443" value="1"/>
  <variable name="Y(5,54)" index="576" value="1"/>
  <variable name="Y(6,56)" index="710" value="1"/>
  <variable name="Y(7,69)" index="854" value="1"/>
  <variable name="Y(8,75)" index="992" value="1"/>
  <variable name="Y(9,79)" index="1128" value="1"/>
  <variable name="Y(10,83)" index="1264" value="1"/>
  <variable name="Y(11,85)" index="1398" value="1"/>
  <variable name="Y(12,86)" index="1531" value="1"/>
  <variable name="Y(13,2)" index="1585" value="1"/>
  <variable name="Y(15,8)" index="1855" value="1"/>
  <variable name="Y(16,9)" index="1988" value="1"/>
  <variable name="Y(17,11)" index="2122" value="1"/>
  <variable name="Y(18,15)" index="2258" value="1"/>
  <variable name="Y(19,22)" index="2396" value="1"/>
  <variable name="Y(20,23)" index="2529" value="1"/>
  <variable name="Y(21,28)" index="2664" value="1"/>
  <variable name="Y(23,34)" index="2934" value="1"/>
  <variable name="Y(24,36)" index="3068" value="1"/>
  <variable name="Y(25,38)" index="3201" value="1"/>
  <variable name="Y(26,39)" index="3334" value="1"/>
  <variable name="Y(27,41)" index="3468" value="1"/>
  <variable name="Y(28,44)" index="3603" value="1"/>
  <variable name="Y(29,46)" index="3737" value="1"/>
  <variable name="Y(31,50)" index="4004" value="1"/>
  <variable name="Y(35,65)" index="4546" value="1"/>
  <variable name="Y(36,66)" index="4679" value="1"/>
  <variable name="Y(38,72)" index="4949" value="1"/>
  <variable name="Y(40,76)" index="5217" value="1"/>
  <variable name="Y(42,80)" index="5485" value="1"/>
  <variable name="Y(87,3)" index="11354" value="1"/>
  <variable name="Y(93,18)" index="12160" value="1"/>
  <variable name="Y(110,64)" index="14445" value="1"/>
  <variable name="Y(114,71)" index="14980" value="1"/>
  <variable name="Y(121,84)" index="15917" value="1"/>
  <variable name="Y(127,7)" index="16638" value="1"/>
  <variable name="Y(130,12)" index="17039" value="1"/>
  <variable name="Y(136,30)" index="17846" value="1"/>
  <variable name="Y(137,32)" index="17980" value="1"/>
  <variable name="Y(148,51)" index="19449" value="1"/>
  <variable name="Y(149,52)" index="19582" value="1"/>
  <variable name="Y(153,61)" index="20119" value="1"/>
  <variable name="Y(154,63)" index="20252" value="1"/>
  <variable name="Y(186,20)" index="24438" value="1"/>
  <variable name="Y(199,45)" index="26176" value="1"/>
  <variable name="Y(208,59)" index="27377" value="1"/>
  <variable name="Y(209,60)" index="27510" value="1"/>
  <variable name="Y(220,78)" index="28979" value="1"/>
  <variable name="Y(223,82)" index="29379" value="1"/>
  <variable name="X(1,2,13)" index="197748" value="1"/>
  <variable name="X(1,3,87)" index="199320" value="1"/>
  <variable name="X(1,4,18)" index="200749" value="1"/>
  <variable name="X(1,5,14)" index="202243" value="1"/>
  <variable name="X(1,7,41)" index="203768" value="1"/>
  <variable name="X(1,8,15)" index="205240" value="1"/>
  <variable name="X(1,9,16)" index="206739" value="1"/>
  <variable name="X(1,11,17)" index="208238" value="1"/>
  <variable name="X(2,5,1)" index="209720" value="1"/>
  <variable name="X(2,7,3)" index="211220" value="1"/>
  <variable name="X(2,11,6)" index="212721" value="1"/>
  <variable name="X(2,20,2)" index="214215" value="1"/>
  <variable name="X(2,89,13)" index="215724" value="1"/>
  <variable name="X(3,1,13)" index="217222" value="1"/>
  <variable name="X(3,18,93)" index="218800" value="1"/>
  <variable name="X(3,90,87)" index="220292" value="1"/>
  <variable name="X(4,20,46)" index="221749" value="1"/>
  <variable name="X(4,33,2)" index="223203" value="1"/>
  <variable name="X(4,40,4)" index="224703" value="1"/>
  <variable name="X(4,43,19)" index="226216" value="1"/>
  <variable name="X(4,81,35)" index="227730" value="1"/>
  <variable name="X(5,2,58)" index="229251" value="1"/>
  <variable name="X(5,35,63)" index="230754" value="1"/>
  <variable name="X(5,92,1)" index="232190" value="1"/>
  <variable name="X(6,35,415)" index="234102" value="1"/>
  <variable name="X(6,47,3)" index="235188" value="1"/>
  <variable name="X(6,79,54)" index="236737" value="1"/>
  <variable name="X(7,1,87)" index="238268" value="1"/>
  <variable name="X(7,2,86)" index="239765" value="1"/>
  <variable name="X(7,8,59)" index="241236" value="1"/>
  <variable name="X(7,79,3)" index="242678" value="1"/>
  <variable name="X(7,94,127)" index="244300" value="1"/>
  <variable name="X(8,1,125)" index="245796" value="1"/>
  <variable name="X(8,7,124)" index="247293" value="1"/>
  <variable name="X(8,19,128)" index="248795" value="1"/>
  <variable name="X(8,20,130)" index="250295" value="1"/>
  <variable name="X(8,95,15)" index="251678" value="1"/>
  <variable name="X(9,1,613)" index="253774" value="1"/>
  <variable name="X(9,18,300)" index="254959" value="1"/>
  <variable name="X(9,19,171)" index="256328" value="1"/>
  <variable name="X(9,20,607)" index="258262" value="1"/>
  <variable name="X(9,31,169)" index="259322" value="1"/>
  <variable name="X(9,47,30)" index="260681" value="1"/>
  <variable name="X(9,58,28)" index="262177" value="1"/>
  <variable name="X(9,67,199)" index="263846" value="1"/>
  <variable name="X(9,72,38)" index="265183" value="1"/>
  <variable name="X(9,75,8)" index="266651" value="1"/>
  <variable name="X(9,96,16)" index="268157" value="1"/>
  <variable name="X(10,1,176)" index="269815" value="1"/>
  <variable name="X(10,5,46)" index="271183" value="1"/>
  <variable name="X(10,20,181)" index="272816" value="1"/>
  <variable name="X(10,35,179)" index="274312" value="1"/>
  <variable name="X(11,1,235)" index="275866" value="1"/>
  <variable name="X(11,2,228)" index="277357" value="1"/>
  <variable name="X(11,13,6)" index="278633" value="1"/>
  <variable name="X(11,35,230)" index="280355" value="1"/>
  <variable name="X(11,98,17)" index="281640" value="1"/>
  <variable name="X(12,13,240)" index="283361" value="1"/>
  <variable name="X(12,14,6)" index="284625" value="1"/>
  <variable name="X(12,15,244)" index="286361" value="1"/>
  <variable name="X(12,16,326)" index="287941" value="1"/>
  <variable name="X(12,99,130)" index="289243" value="1"/>
  <variable name="X(13,11,240)" index="290851" value="1"/>
  <variable name="X(13,12,6)" index="292115" value="1"/>
  <variable name="X(13,15,18)" index="293625" value="1"/>
  <variable name="X(13,16,154)" index="295259" value="1"/>
  <variable name="X(13,40,241)" index="296844" value="1"/>
  <variable name="X(13,50,31)" index="298132" value="1"/>
  <variable name="X(14,12,268)" index="299867" value="1"/>
  <variable name="X(14,56,6)" index="301103" value="1"/>
  <variable name="X(14,61,153)" index="302748" value="1"/>
  <variable name="X(15,12,299)" index="304392" value="1"/>
  <variable name="X(15,13,292)" index="305883" value="1"/>
  <variable name="X(15,102,18)" index="307107" value="1"/>
  <variable name="X(16,12,348)" index="308935" value="1"/>
  <variable name="X(16,13,343)" index="310428" value="1"/>
  <variable name="X(16,63,154)" index="311737" value="1"/>
  <variable name="X(18,105,93)" index="313174" value="1"/>
  <variable name="X(19,3,608)" index="315187" value="1"/>
  <variable name="X(19,4,171)" index="316248" value="1"/>
  <variable name="X(19,8,611)" index="318186" value="1"/>
  <variable name="X(19,9,128)" index="319201" value="1"/>
  <variable name="X(20,2,379)" index="320950" value="1"/>
  <variable name="X(20,3,293)" index="322362" value="1"/>
  <variable name="X(20,4,2)" index="323569" value="1"/>
  <variable name="X(20,8,241)" index="325306" value="1"/>
  <variable name="X(20,9,8)" index="326571" value="1"/>
  <variable name="X(20,10,46)" index="328107" value="1"/>
  <variable name="X(20,107,186)" index="329745" value="1"/>
  <variable name="X(21,22,450)" index="331507" value="1"/>
  <variable name="X(21,23,420)" index="332975" value="1"/>
  <variable name="X(22,21,420)" index="334473" value="1"/>
  <variable name="X(22,28,421)" index="335972" value="1"/>
  <variable name="X(22,29,414)" index="337463" value="1"/>
  <variable name="X(22,30,1421)" index="339968" value="1"/>
  <variable name="X(22,109,19)" index="340064" value="1"/>
  <variable name="X(23,21,450)" index="341993" value="1"/>
  <variable name="X(23,24,444)" index="343485" value="1"/>
  <variable name="X(23,28,451)" index="344990" value="1"/>
  <variable name="X(23,85,11)" index="346048" value="1"/>
  <variable name="X(23,110,20)" index="347555" value="1"/>
  <variable name="X(24,21,486)" index="349519" value="1"/>
  <variable name="X(24,23,487)" index="351018" value="1"/>
  <variable name="X(24,28,488)" index="352517" value="1"/>
  <variable name="X(24,36,454)" index="353981" value="1"/>
  <variable name="X(24,40,444)" index="355469" value="1"/>
  <variable name="X(27,22,527)" index="357050" value="1"/>
  <variable name="X(27,30,530)" index="358551" value="1"/>
  <variable name="X(27,55,516)" index="360035" value="1"/>
  <variable name="X(28,22,577)" index="361594" value="1"/>
  <variable name="X(28,23,11)" index="362526" value="1"/>
  <variable name="X(28,36,581)" index="364594" value="1"/>
  <variable name="X(28,38,424)" index="365935" value="1"/>
  <variable name="X(28,39,26)" index="367035" value="1"/>
  <variable name="X(28,40,568)" index="369075" value="1"/>
  <variable name="X(28,115,21)" index="370026" value="1"/>
  <variable name="X(29,22,19)" index="371522" value="1"/>
  <variable name="X(29,41,414)" index="373415" value="1"/>
  <variable name="X(29,80,10)" index="374509" value="1"/>
  <variable name="X(30,80,562)" index="376559" value="1"/>
  <variable name="X(30,83,564)" index="378059" value="1"/>
  <variable name="X(30,117,136)" index="379129" value="1"/>
  <variable name="X(31,9,607)" index="381098" value="1"/>
  <variable name="X(31,32,621)" index="382610" value="1"/>
  <variable name="X(31,33,169)" index="383656" value="1"/>
  <variable name="X(31,34,623)" index="385608" value="1"/>
  <variable name="X(32,31,659)" index="387142" value="1"/>
  <variable name="X(32,33,655)" index="388636" value="1"/>
  <variable name="X(32,48,641)" index="390120" value="1"/>
  <variable name="X(32,119,137)" index="391114" value="1"/>
  <variable name="X(33,4,614)" index="393089" value="1"/>
  <variable name="X(33,32,137)" index="394110" value="1"/>
  <variable name="X(33,34,23)" index="395494" value="1"/>
  <variable name="X(33,120,2)" index="396971" value="1"/>
  <variable name="X(34,31,675)" index="399142" value="1"/>
  <variable name="X(34,33,670)" index="400635" value="1"/>
  <variable name="X(34,48,704)" index="402167" value="1"/>
  <variable name="X(34,121,23)" index="402984" value="1"/>
  <variable name="X(35,5,415)" index="404874" value="1"/>
  <variable name="X(35,6,63)" index="406020" value="1"/>
  <variable name="X(35,7,179)" index="407634" value="1"/>
  <variable name="X(35,11,418)" index="409371" value="1"/>
  <variable name="X(36,28,729)" index="411180" value="1"/>
  <variable name="X(36,40,419)" index="412368" value="1"/>
  <variable name="X(36,43,457)" index="413904" value="1"/>
  <variable name="X(36,53,4)" index="414949" value="1"/>
  <variable name="X(36,123,24)" index="416467" value="1"/>
  <variable name="X(38,28,741)" index="418682" value="1"/>
  <variable name="X(38,41,731)" index="420170" value="1"/>
  <variable name="X(38,43,732)" index="421669" value="1"/>
  <variable name="X(38,125,25)" index="422460" value="1"/>
  <variable name="X(39,126,26)" index="423959" value="1"/>
  <variable name="X(40,4,241)" index="425672" value="1"/>
  <variable name="X(40,13,18)" index="426947" value="1"/>
  <variable name="X(40,28,11)" index="428438" value="1"/>
  <variable name="X(40,36,4)" index="429929" value="1"/>
  <variable name="X(41,29,10)" index="431433" value="1"/>
  <variable name="X(41,38,67)" index="432988" value="1"/>
  <variable name="X(41,43,416)" index="434835" value="1"/>
  <variable name="X(41,44,70)" index="435987" value="1"/>
  <variable name="X(41,45,314)" index="437729" value="1"/>
  <variable name="X(41,46,436)" index="439349" value="1"/>
  <variable name="X(41,47,414)" index="440825" value="1"/>
  <variable name="X(41,128,27)" index="441936" value="1"/>
  <variable name="X(42,38,753)" index="444160" value="1"/>
  <variable name="X(42,41,746)" index="445651" value="1"/>
  <variable name="X(42,43,743)" index="447146" value="1"/>
  <variable name="X(43,4,416)" index="448317" value="1"/>
  <variable name="X(43,36,419)" index="449818" value="1"/>
  <variable name="X(43,38,25)" index="450922" value="1"/>
  <variable name="X(43,41,19)" index="452414" value="1"/>
  <variable name="X(44,41,798)" index="454691" value="1"/>
  <variable name="X(44,67,543)" index="455934" value="1"/>
  <variable name="X(44,76,40)" index="456929" value="1"/>
  <variable name="X(44,78,475)" index="458862" value="1"/>
  <variable name="X(44,131,28)" index="459913" value="1"/>
  <variable name="X(45,41,1212)" index="462595" value="1"/>
  <variable name="X(45,67,1208)" index="464089" value="1"/>
  <variable name="X(45,132,199)" index="464578" value="1"/>
  <variable name="X(46,41,809)" index="466686" value="1"/>
  <variable name="X(46,58,808)" index="468183" value="1"/>
  <variable name="X(46,71,114)" index="468987" value="1"/>
  <variable name="X(46,72,436)" index="470807" value="1"/>
  <variable name="X(46,78,121)" index="471990" value="1"/>
  <variable name="X(46,133,29)" index="473396" value="1"/>
  <variable name="X(47,6,54)" index="474919" value="1"/>
  <variable name="X(47,9,90)" index="476453" value="1"/>
  <variable name="X(47,41,10)" index="477871" value="1"/>
  <variable name="X(47,134,3)" index="479362" value="1"/>
  <variable name="X(48,34,810)" index="481667" value="1"/>
  <variable name="X(48,82,641)" index="482996" value="1"/>
  <variable name="X(50,137,31)" index="483884" value="1"/>
  <variable name="X(51,52,818)" index="486169" value="1"/>
  <variable name="X(51,138,148)" index="486997" value="1"/>
  <variable name="X(52,51,148)" index="488495" value="1"/>
  <variable name="X(52,59,818)" index="490663" value="1"/>
  <variable name="X(52,139,149)" index="491492" value="1"/>
  <variable name="X(53,36,516)" index="493357" value="1"/>
  <variable name="X(53,54,5)" index="494344" value="1"/>
  <variable name="X(53,140,4)" index="495841" value="1"/>
  <variable name="X(54,53,861)" index="498196" value="1"/>
  <variable name="X(54,56,432)" index="499265" value="1"/>
  <variable name="X(54,57,7)" index="500338" value="1"/>
  <variable name="X(54,141,5)" index="501834" value="1"/>
  <variable name="X(55,53,516)" index="503843" value="1"/>
  <variable name="X(56,14,888)" index="505713" value="1"/>
  <variable name="X(56,54,256)" index="506579" value="1"/>
  <variable name="X(56,60,549)" index="508370" value="1"/>
  <variable name="X(56,143,6)" index="509325" value="1"/>
  <variable name="X(57,54,906)" index="511723" value="1"/>
  <variable name="X(57,69,7)" index="512322" value="1"/>
  <variable name="X(57,70,884)" index="514697" value="1"/>
  <variable name="X(58,9,808)" index="516119" value="1"/>
  <variable name="X(58,44,28)" index="516837" value="1"/>
  <variable name="X(58,46,29)" index="518336" value="1"/>
  <variable name="X(58,59,148)" index="519953" value="1"/>
  <variable name="X(59,52,148)" index="521451" value="1"/>
  <variable name="X(59,58,818)" index="523619" value="1"/>
  <variable name="X(59,146,208)" index="524507" value="1"/>
  <variable name="X(60,16,964)" index="526761" value="1"/>
  <variable name="X(60,56,944)" index="528239" value="1"/>
  <variable name="X(60,61,550)" index="529343" value="1"/>
  <variable name="X(60,147,209)" index="530500" value="1"/>
  <variable name="X(61,14,930)" index="532719" value="1"/>
  <variable name="X(61,60,209)" index="533496" value="1"/>
  <variable name="X(61,148,153)" index="534938" value="1"/>
  <variable name="X(63,16,981)" index="537264" value="1"/>
  <variable name="X(63,150,154)" index="537935" value="1"/>
  <variable name="X(64,66,1022)" index="540301" value="1"/>
  <variable name="X(64,151,110)" index="540887" value="1"/>
  <variable name="X(65,66,1027)" index="543302" value="1"/>
  <variable name="X(65,152,35)" index="543808" value="1"/>
  <variable name="X(66,64,110)" index="545381" value="1"/>
  <variable name="X(66,65,35)" index="546804" value="1"/>
  <variable name="X(66,81,1022)" index="549289" value="1"/>
  <variable name="X(66,82,223)" index="549988" value="1"/>
  <variable name="X(66,153,36)" index="551299" value="1"/>
  <variable name="X(67,9,796)" index="553557" value="1"/>
  <variable name="X(67,45,199)" index="554458" value="1"/>
  <variable name="X(67,59,543)" index="556300" value="1"/>
  <variable name="X(68,57,1045)" index="558300" value="1"/>
  <variable name="X(69,57,1097)" index="559850" value="1"/>
  <variable name="X(69,156,7)" index="560258" value="1"/>
  <variable name="X(70,57,435)" index="562184" value="1"/>
  <variable name="X(70,73,884)" index="564131" value="1"/>
  <variable name="X(70,74,885)" index="565630" value="1"/>
  <variable name="X(71,158,114)" index="566357" value="1"/>
  <variable name="X(72,159,38)" index="567779" value="1"/>
  <variable name="X(73,30,944)" index="570183" value="1"/>
  <variable name="X(73,70,435)" index="571172" value="1"/>
  <variable name="X(73,80,884)" index="573119" value="1"/>
  <variable name="X(74,70,1189)" index="574922" value="1"/>
  <variable name="X(74,83,885)" index="576116" value="1"/>
  <variable name="X(75,9,1199)" index="577928" value="1"/>
  <variable name="X(75,162,8)" index="578235" value="1"/>
  <variable name="X(76,44,1220)" index="580945" value="1"/>
  <variable name="X(76,45,1208)" index="582431" value="1"/>
  <variable name="X(76,163,40)" index="582761" value="1"/>
  <variable name="X(77,44,1235)" index="585454" value="1"/>
  <variable name="X(77,46,1253)" index="586970" value="1"/>
  <variable name="X(78,44,1389)" index="588604" value="1"/>
  <variable name="X(78,46,1273)" index="589986" value="1"/>
  <variable name="X(78,84,121)" index="590332" value="1"/>
  <variable name="X(78,165,220)" index="591929" value="1"/>
  <variable name="X(79,6,3)" index="593210" value="1"/>
  <variable name="X(79,7,414)" index="595119" value="1"/>
  <variable name="X(79,166,9)" index="596212" value="1"/>
  <variable name="X(80,29,1056)" index="598757" value="1"/>
  <variable name="X(80,30,136)" index="599335" value="1"/>
  <variable name="X(80,73,435)" index="601132" value="1"/>
  <variable name="X(80,83,10)" index="602205" value="1"/>
  <variable name="X(80,167,42)" index="603735" value="1"/>
  <variable name="X(81,4,1022)" index="606213" value="1"/>
  <variable name="X(81,66,35)" index="606724" value="1"/>
  <variable name="X(82,48,1030)" index="609217" value="1"/>
  <variable name="X(82,66,641)" index="610326" value="1"/>
  <variable name="X(82,169,223)" index="611406" value="1"/>
  <variable name="X(83,80,1184)" index="613865" value="1"/>
  <variable name="X(83,170,10)" index="614189" value="1"/>
  <variable name="X(84,78,1374)" index="617051" value="1"/>
  <variable name="X(84,171,121)" index="617296" value="1"/>
  <variable name="X(85,23,1408)" index="620081" value="1"/>
  <variable name="X(85,86,12)" index="620183" value="1"/>
  <variable name="X(85,172,11)" index="621680" value="1"/>
  <variable name="X(86,85,1454)" index="624621" value="1"/>
  <variable name="X(86,173,12)" index="624677" value="1"/>
 </variables>
</CPLEXSolution>
